; benchmark generated from python API
(set-info :status unknown)
(declare-fun cell_1_1 () Int)
(declare-fun cell_2_1 () Int)
(declare-fun cell_3_1 () Int)
(declare-fun cell_4_1 () Int)
(declare-fun cell_5_1 () Int)
(declare-fun cell_6_1 () Int)
(declare-fun cell_7_1 () Int)
(declare-fun cell_8_1 () Int)
(declare-fun cell_9_1 () Int)
(declare-fun cell_1_2 () Int)
(declare-fun cell_2_2 () Int)
(declare-fun cell_3_2 () Int)
(declare-fun cell_4_2 () Int)
(declare-fun cell_5_2 () Int)
(declare-fun cell_6_2 () Int)
(declare-fun cell_7_2 () Int)
(declare-fun cell_8_2 () Int)
(declare-fun cell_9_2 () Int)
(declare-fun cell_1_3 () Int)
(declare-fun cell_2_3 () Int)
(declare-fun cell_3_3 () Int)
(declare-fun cell_4_3 () Int)
(declare-fun cell_5_3 () Int)
(declare-fun cell_6_3 () Int)
(declare-fun cell_7_3 () Int)
(declare-fun cell_8_3 () Int)
(declare-fun cell_9_3 () Int)
(declare-fun cell_1_4 () Int)
(declare-fun cell_2_4 () Int)
(declare-fun cell_3_4 () Int)
(declare-fun cell_4_4 () Int)
(declare-fun cell_5_4 () Int)
(declare-fun cell_6_4 () Int)
(declare-fun cell_7_4 () Int)
(declare-fun cell_8_4 () Int)
(declare-fun cell_9_4 () Int)
(declare-fun cell_1_5 () Int)
(declare-fun cell_2_5 () Int)
(declare-fun cell_3_5 () Int)
(declare-fun cell_4_5 () Int)
(declare-fun cell_5_5 () Int)
(declare-fun cell_6_5 () Int)
(declare-fun cell_7_5 () Int)
(declare-fun cell_8_5 () Int)
(declare-fun cell_9_5 () Int)
(declare-fun cell_1_6 () Int)
(declare-fun cell_2_6 () Int)
(declare-fun cell_3_6 () Int)
(declare-fun cell_4_6 () Int)
(declare-fun cell_5_6 () Int)
(declare-fun cell_6_6 () Int)
(declare-fun cell_7_6 () Int)
(declare-fun cell_8_6 () Int)
(declare-fun cell_9_6 () Int)
(declare-fun cell_1_7 () Int)
(declare-fun cell_2_7 () Int)
(declare-fun cell_3_7 () Int)
(declare-fun cell_4_7 () Int)
(declare-fun cell_5_7 () Int)
(declare-fun cell_6_7 () Int)
(declare-fun cell_7_7 () Int)
(declare-fun cell_8_7 () Int)
(declare-fun cell_9_7 () Int)
(declare-fun cell_1_8 () Int)
(declare-fun cell_2_8 () Int)
(declare-fun cell_3_8 () Int)
(declare-fun cell_4_8 () Int)
(declare-fun cell_5_8 () Int)
(declare-fun cell_6_8 () Int)
(declare-fun cell_7_8 () Int)
(declare-fun cell_8_8 () Int)
(declare-fun cell_9_8 () Int)
(declare-fun cell_1_9 () Int)
(declare-fun cell_2_9 () Int)
(declare-fun cell_3_9 () Int)
(declare-fun cell_4_9 () Int)
(declare-fun cell_5_9 () Int)
(declare-fun cell_6_9 () Int)
(declare-fun cell_7_9 () Int)
(declare-fun cell_8_9 () Int)
(declare-fun cell_9_9 () Int)
(assert
 (let (($x1277 (= cell_1_1 9)))
 (let (($x442 (= cell_1_1 8)))
 (let (($x944 (= cell_1_1 7)))
 (let (($x767 (= cell_1_1 6)))
 (let (($x1560 (= cell_1_1 5)))
 (let (($x35 (= cell_1_1 4)))
 (let (($x912 (= cell_1_1 3)))
 (let (($x765 (= cell_1_1 2)))
 (let (($x1499 (= cell_1_1 1)))
 (or $x1499 $x765 $x912 $x35 $x1560 $x767 $x944 $x442 $x1277)))))))))))
(assert
 (let (($x252 (= cell_2_1 9)))
 (let (($x1364 (= cell_2_1 8)))
 (let (($x280 (= cell_2_1 7)))
 (let (($x1012 (= cell_2_1 6)))
 (let (($x1031 (= cell_2_1 5)))
 (let (($x2019 (= cell_2_1 4)))
 (let (($x591 (= cell_2_1 3)))
 (let (($x1939 (= cell_2_1 2)))
 (let (($x991 (= cell_2_1 1)))
 (or $x991 $x1939 $x591 $x2019 $x1031 $x1012 $x280 $x1364 $x252)))))))))))
(assert
 (let (($x1386 (= cell_3_1 9)))
 (let (($x745 (= cell_3_1 8)))
 (let (($x1532 (= cell_3_1 7)))
 (let (($x287 (= cell_3_1 6)))
 (let (($x1348 (= cell_3_1 5)))
 (let (($x1685 (= cell_3_1 4)))
 (let (($x114 (= cell_3_1 3)))
 (let (($x1141 (= cell_3_1 2)))
 (let (($x852 (= cell_3_1 1)))
 (or $x852 $x1141 $x114 $x1685 $x1348 $x287 $x1532 $x745 $x1386)))))))))))
(assert
 (let (($x1764 (= cell_4_1 9)))
 (let (($x365 (= cell_4_1 8)))
 (let (($x1007 (= cell_4_1 7)))
 (let (($x850 (= cell_4_1 6)))
 (let (($x1982 (= cell_4_1 5)))
 (let (($x421 (= cell_4_1 4)))
 (let (($x289 (= cell_4_1 3)))
 (let (($x1871 (= cell_4_1 2)))
 (let (($x1498 (= cell_4_1 1)))
 (or $x1498 $x1871 $x289 $x421 $x1982 $x850 $x1007 $x365 $x1764)))))))))))
(assert
 (let (($x244 (= cell_5_1 9)))
 (let (($x1321 (= cell_5_1 8)))
 (let (($x1594 (= cell_5_1 7)))
 (let (($x86 (= cell_5_1 6)))
 (let (($x746 (= cell_5_1 5)))
 (let (($x669 (= cell_5_1 4)))
 (let (($x476 (= cell_5_1 3)))
 (let (($x1621 (= cell_5_1 2)))
 (let (($x1743 (= cell_5_1 1)))
 (or $x1743 $x1621 $x476 $x669 $x746 $x86 $x1594 $x1321 $x244)))))))))))
(assert
 (let (($x430 (= cell_6_1 9)))
 (let (($x1797 (= cell_6_1 8)))
 (let (($x419 (= cell_6_1 7)))
 (let (($x346 (= cell_6_1 6)))
 (let (($x1789 (= cell_6_1 5)))
 (let (($x27 (= cell_6_1 4)))
 (let (($x327 (= cell_6_1 3)))
 (let (($x781 (= cell_6_1 2)))
 (let (($x1897 (= cell_6_1 1)))
 (or $x1897 $x781 $x327 $x27 $x1789 $x346 $x419 $x1797 $x430)))))))))))
(assert
 (let (($x1770 (= cell_7_1 9)))
 (let (($x2032 (= cell_7_1 8)))
 (let (($x1084 (= cell_7_1 7)))
 (let (($x1194 (= cell_7_1 6)))
 (let (($x1088 (= cell_7_1 5)))
 (let (($x1519 (= cell_7_1 4)))
 (let (($x1680 (= cell_7_1 3)))
 (let (($x853 (= cell_7_1 2)))
 (let (($x1232 (= cell_7_1 1)))
 (or $x1232 $x853 $x1680 $x1519 $x1088 $x1194 $x1084 $x2032 $x1770)))))))))))
(assert
 (let (($x557 (= cell_8_1 9)))
 (let (($x1303 (= cell_8_1 8)))
 (let (($x817 (= cell_8_1 7)))
 (let (($x450 (= cell_8_1 6)))
 (let (($x685 (= cell_8_1 5)))
 (let (($x702 (= cell_8_1 4)))
 (let (($x560 (= cell_8_1 3)))
 (let (($x348 (= cell_8_1 2)))
 (let (($x684 (= cell_8_1 1)))
 (or $x684 $x348 $x560 $x702 $x685 $x450 $x817 $x1303 $x557)))))))))))
(assert
 (let (($x1561 (= cell_9_1 9)))
 (let (($x998 (= cell_9_1 8)))
 (let (($x898 (= cell_9_1 7)))
 (let (($x42 (= cell_9_1 6)))
 (let (($x176 (= cell_9_1 5)))
 (let (($x181 (= cell_9_1 4)))
 (let (($x1888 (= cell_9_1 3)))
 (let (($x1454 (= cell_9_1 2)))
 (let (($x1534 (= cell_9_1 1)))
 (or $x1534 $x1454 $x1888 $x181 $x176 $x42 $x898 $x998 $x1561)))))))))))
(assert
 (let (($x1842 (= cell_1_2 9)))
 (let (($x1902 (= cell_1_2 8)))
 (let (($x458 (= cell_1_2 7)))
 (let (($x18 (= cell_1_2 6)))
 (let (($x1562 (= cell_1_2 5)))
 (let (($x203 (= cell_1_2 4)))
 (let (($x1714 (= cell_1_2 3)))
 (let (($x1065 (= cell_1_2 2)))
 (let (($x2030 (= cell_1_2 1)))
 (or $x2030 $x1065 $x1714 $x203 $x1562 $x18 $x458 $x1902 $x1842)))))))))))
(assert
 (let (($x1456 (= cell_2_2 9)))
 (let (($x1207 (= cell_2_2 8)))
 (let (($x889 (= cell_2_2 7)))
 (let (($x257 (= cell_2_2 6)))
 (let (($x1368 (= cell_2_2 5)))
 (let (($x1731 (= cell_2_2 4)))
 (let (($x1858 (= cell_2_2 3)))
 (let (($x1069 (= cell_2_2 2)))
 (let (($x1887 (= cell_2_2 1)))
 (or $x1887 $x1069 $x1858 $x1731 $x1368 $x257 $x889 $x1207 $x1456)))))))))))
(assert
 (let (($x1995 (= cell_3_2 9)))
 (let (($x670 (= cell_3_2 8)))
 (let (($x818 (= cell_3_2 7)))
 (let (($x28 (= cell_3_2 6)))
 (let (($x238 (= cell_3_2 5)))
 (let (($x728 (= cell_3_2 4)))
 (let (($x1192 (= cell_3_2 3)))
 (let (($x137 (= cell_3_2 2)))
 (let (($x611 (= cell_3_2 1)))
 (or $x611 $x137 $x1192 $x728 $x238 $x28 $x818 $x670 $x1995)))))))))))
(assert
 (let (($x700 (= cell_4_2 9)))
 (let (($x730 (= cell_4_2 8)))
 (let (($x983 (= cell_4_2 7)))
 (let (($x19 (= cell_4_2 6)))
 (let (($x1429 (= cell_4_2 5)))
 (let (($x2031 (= cell_4_2 4)))
 (let (($x352 (= cell_4_2 3)))
 (let (($x642 (= cell_4_2 2)))
 (let (($x1482 (= cell_4_2 1)))
 (or $x1482 $x642 $x352 $x2031 $x1429 $x19 $x983 $x730 $x700)))))))))))
(assert
 (let (($x951 (= cell_5_2 9)))
 (let (($x1279 (= cell_5_2 8)))
 (let (($x1679 (= cell_5_2 7)))
 (let (($x1699 (= cell_5_2 6)))
 (let (($x2074 (= cell_5_2 5)))
 (let (($x1332 (= cell_5_2 4)))
 (let (($x516 (= cell_5_2 3)))
 (let (($x1073 (= cell_5_2 2)))
 (let (($x366 (= cell_5_2 1)))
 (or $x366 $x1073 $x516 $x1332 $x2074 $x1699 $x1679 $x1279 $x951)))))))))))
(assert
 (let (($x615 (= cell_6_2 9)))
 (let (($x1188 (= cell_6_2 8)))
 (let (($x47 (= cell_6_2 7)))
 (let (($x1254 (= cell_6_2 6)))
 (let (($x1691 (= cell_6_2 5)))
 (let (($x155 (= cell_6_2 4)))
 (let (($x1162 (= cell_6_2 3)))
 (let (($x865 (= cell_6_2 2)))
 (let (($x814 (= cell_6_2 1)))
 (or $x814 $x865 $x1162 $x155 $x1691 $x1254 $x47 $x1188 $x615)))))))))))
(assert
 (let (($x2053 (= cell_7_2 9)))
 (let (($x1915 (= cell_7_2 8)))
 (let (($x1862 (= cell_7_2 7)))
 (let (($x1846 (= cell_7_2 6)))
 (let (($x317 (= cell_7_2 5)))
 (let (($x266 (= cell_7_2 4)))
 (let (($x389 (= cell_7_2 3)))
 (let (($x1460 (= cell_7_2 2)))
 (let (($x49 (= cell_7_2 1)))
 (or $x49 $x1460 $x389 $x266 $x317 $x1846 $x1862 $x1915 $x2053)))))))))))
(assert
 (let (($x772 (= cell_8_2 9)))
 (let (($x1814 (= cell_8_2 8)))
 (let (($x1119 (= cell_8_2 7)))
 (let (($x91 (= cell_8_2 6)))
 (let (($x85 (= cell_8_2 5)))
 (let (($x2018 (= cell_8_2 4)))
 (let (($x1014 (= cell_8_2 3)))
 (let (($x329 (= cell_8_2 2)))
 (let (($x626 (= cell_8_2 1)))
 (or $x626 $x329 $x1014 $x2018 $x85 $x91 $x1119 $x1814 $x772)))))))))))
(assert
 (let (($x1406 (= cell_9_2 9)))
 (let (($x1242 (= cell_9_2 8)))
 (let (($x2076 (= cell_9_2 7)))
 (let (($x687 (= cell_9_2 6)))
 (let (($x1074 (= cell_9_2 5)))
 (let (($x1788 (= cell_9_2 4)))
 (let (($x1926 (= cell_9_2 3)))
 (let (($x490 (= cell_9_2 2)))
 (let (($x1388 (= cell_9_2 1)))
 (or $x1388 $x490 $x1926 $x1788 $x1074 $x687 $x2076 $x1242 $x1406)))))))))))
(assert
 (let (($x374 (= cell_1_3 9)))
 (let (($x372 (= cell_1_3 8)))
 (let (($x1225 (= cell_1_3 7)))
 (let (($x367 (= cell_1_3 6)))
 (let (($x1197 (= cell_1_3 5)))
 (let (($x2115 (= cell_1_3 4)))
 (let (($x1704 (= cell_1_3 3)))
 (let (($x119 (= cell_1_3 2)))
 (let (($x1693 (= cell_1_3 1)))
 (or $x1693 $x119 $x1704 $x2115 $x1197 $x367 $x1225 $x372 $x374)))))))))))
(assert
 (let (($x1080 (= cell_2_3 9)))
 (let (($x518 (= cell_2_3 8)))
 (let (($x483 (= cell_2_3 7)))
 (let (($x834 (= cell_2_3 6)))
 (let (($x359 (= cell_2_3 5)))
 (let (($x517 (= cell_2_3 4)))
 (let (($x1981 (= cell_2_3 3)))
 (let (($x759 (= cell_2_3 2)))
 (let (($x1520 (= cell_2_3 1)))
 (or $x1520 $x759 $x1981 $x517 $x359 $x834 $x483 $x518 $x1080)))))))))))
(assert
 (let (($x988 (= cell_3_3 9)))
 (let (($x773 (= cell_3_3 8)))
 (let (($x2057 (= cell_3_3 7)))
 (let (($x22 (= cell_3_3 6)))
 (let (($x1083 (= cell_3_3 5)))
 (let (($x627 (= cell_3_3 4)))
 (let (($x646 (= cell_3_3 3)))
 (let (($x1549 (= cell_3_3 2)))
 (let (($x593 (= cell_3_3 1)))
 (or $x593 $x1549 $x646 $x627 $x1083 $x22 $x2057 $x773 $x988)))))))))))
(assert
 (let (($x1149 (= cell_4_3 9)))
 (let (($x1469 (= cell_4_3 8)))
 (let (($x394 (= cell_4_3 7)))
 (let (($x502 (= cell_4_3 6)))
 (let (($x418 (= cell_4_3 5)))
 (let (($x163 (= cell_4_3 4)))
 (let (($x1438 (= cell_4_3 3)))
 (let (($x457 (= cell_4_3 2)))
 (let (($x510 (= cell_4_3 1)))
 (or $x510 $x457 $x1438 $x163 $x418 $x502 $x394 $x1469 $x1149)))))))))))
(assert
 (let (($x648 (= cell_5_3 9)))
 (let (($x841 (= cell_5_3 8)))
 (let (($x379 (= cell_5_3 7)))
 (let (($x1710 (= cell_5_3 6)))
 (let (($x308 (= cell_5_3 5)))
 (let (($x175 (= cell_5_3 4)))
 (let (($x1941 (= cell_5_3 3)))
 (let (($x692 (= cell_5_3 2)))
 (let (($x549 (= cell_5_3 1)))
 (or $x549 $x692 $x1941 $x175 $x308 $x1710 $x379 $x841 $x648)))))))))))
(assert
 (let (($x1343 (= cell_6_3 9)))
 (let (($x1385 (= cell_6_3 8)))
 (let (($x1801 (= cell_6_3 7)))
 (let (($x1487 (= cell_6_3 6)))
 (let (($x592 (= cell_6_3 5)))
 (let (($x748 (= cell_6_3 4)))
 (let (($x1539 (= cell_6_3 3)))
 (let (($x1483 (= cell_6_3 2)))
 (let (($x1769 (= cell_6_3 1)))
 (or $x1769 $x1483 $x1539 $x748 $x592 $x1487 $x1801 $x1385 $x1343)))))))))))
(assert
 (let (($x1206 (= cell_7_3 9)))
 (let (($x473 (= cell_7_3 8)))
 (let (($x1610 (= cell_7_3 7)))
 (let (($x1847 (= cell_7_3 6)))
 (let (($x54 (= cell_7_3 5)))
 (let (($x2010 (= cell_7_3 4)))
 (let (($x862 (= cell_7_3 3)))
 (let (($x1663 (= cell_7_3 2)))
 (let (($x1733 (= cell_7_3 1)))
 (or $x1733 $x1663 $x862 $x2010 $x54 $x1847 $x1610 $x473 $x1206)))))))))))
(assert
 (let (($x1640 (= cell_8_3 9)))
 (let (($x1522 (= cell_8_3 8)))
 (let (($x1781 (= cell_8_3 7)))
 (let (($x1463 (= cell_8_3 6)))
 (let (($x1393 (= cell_8_3 5)))
 (let (($x1934 (= cell_8_3 4)))
 (let (($x499 (= cell_8_3 3)))
 (let (($x1831 (= cell_8_3 2)))
 (let (($x439 (= cell_8_3 1)))
 (or $x439 $x1831 $x499 $x1934 $x1393 $x1463 $x1781 $x1522 $x1640)))))))))))
(assert
 (let (($x1044 (= cell_9_3 9)))
 (let (($x80 (= cell_9_3 8)))
 (let (($x1606 (= cell_9_3 7)))
 (let (($x969 (= cell_9_3 6)))
 (let (($x1613 (= cell_9_3 5)))
 (let (($x1026 (= cell_9_3 4)))
 (let (($x534 (= cell_9_3 3)))
 (let (($x1461 (= cell_9_3 2)))
 (let (($x1495 (= cell_9_3 1)))
 (or $x1495 $x1461 $x534 $x1026 $x1613 $x969 $x1606 $x80 $x1044)))))))))))
(assert
 (let (($x1320 (= cell_1_4 9)))
 (let (($x1111 (= cell_1_4 8)))
 (let (($x1717 (= cell_1_4 7)))
 (let (($x1398 (= cell_1_4 6)))
 (let (($x273 (= cell_1_4 5)))
 (let (($x677 (= cell_1_4 4)))
 (let (($x589 (= cell_1_4 3)))
 (let (($x134 (= cell_1_4 2)))
 (let (($x1643 (= cell_1_4 1)))
 (or $x1643 $x134 $x589 $x677 $x273 $x1398 $x1717 $x1111 $x1320)))))))))))
(assert
 (let (($x963 (= cell_2_4 9)))
 (let (($x1573 (= cell_2_4 8)))
 (let (($x1342 (= cell_2_4 7)))
 (let (($x1845 (= cell_2_4 6)))
 (let (($x230 (= cell_2_4 5)))
 (let (($x1587 (= cell_2_4 4)))
 (let (($x2048 (= cell_2_4 3)))
 (let (($x906 (= cell_2_4 2)))
 (let (($x1436 (= cell_2_4 1)))
 (or $x1436 $x906 $x2048 $x1587 $x230 $x1845 $x1342 $x1573 $x963)))))))))))
(assert
 (let (($x1716 (= cell_3_4 9)))
 (let (($x193 (= cell_3_4 8)))
 (let (($x1086 (= cell_3_4 7)))
 (let (($x664 (= cell_3_4 6)))
 (let (($x323 (= cell_3_4 5)))
 (let (($x1677 (= cell_3_4 4)))
 (let (($x311 (= cell_3_4 3)))
 (let (($x2036 (= cell_3_4 2)))
 (let (($x1746 (= cell_3_4 1)))
 (or $x1746 $x2036 $x311 $x1677 $x323 $x664 $x1086 $x193 $x1716)))))))))))
(assert
 (let (($x51 (= cell_4_4 9)))
 (let (($x1346 (= cell_4_4 8)))
 (let (($x625 (= cell_4_4 7)))
 (let (($x1040 (= cell_4_4 6)))
 (let (($x972 (= cell_4_4 5)))
 (let (($x2027 (= cell_4_4 4)))
 (let (($x157 (= cell_4_4 3)))
 (let (($x1052 (= cell_4_4 2)))
 (let (($x1180 (= cell_4_4 1)))
 (or $x1180 $x1052 $x157 $x2027 $x972 $x1040 $x625 $x1346 $x51)))))))))))
(assert
 (let (($x1272 (= cell_5_4 9)))
 (let (($x1586 (= cell_5_4 8)))
 (let (($x1410 (= cell_5_4 7)))
 (let (($x1251 (= cell_5_4 6)))
 (let (($x926 (= cell_5_4 5)))
 (let (($x1681 (= cell_5_4 4)))
 (let (($x639 (= cell_5_4 3)))
 (let (($x1153 (= cell_5_4 2)))
 (let (($x1247 (= cell_5_4 1)))
 (or $x1247 $x1153 $x639 $x1681 $x926 $x1251 $x1410 $x1586 $x1272)))))))))))
(assert
 (let (($x959 (= cell_6_4 9)))
 (let (($x605 (= cell_6_4 8)))
 (let (($x395 (= cell_6_4 7)))
 (let (($x1726 (= cell_6_4 6)))
 (let (($x933 (= cell_6_4 5)))
 (let (($x891 (= cell_6_4 4)))
 (let (($x928 (= cell_6_4 3)))
 (let (($x123 (= cell_6_4 2)))
 (let (($x613 (= cell_6_4 1)))
 (or $x613 $x123 $x928 $x891 $x933 $x1726 $x395 $x605 $x959)))))))))))
(assert
 (let (($x842 (= cell_7_4 9)))
 (let (($x968 (= cell_7_4 8)))
 (let (($x775 (= cell_7_4 7)))
 (let (($x1963 (= cell_7_4 6)))
 (let (($x332 (= cell_7_4 5)))
 (let (($x1633 (= cell_7_4 4)))
 (let (($x2009 (= cell_7_4 3)))
 (let (($x277 (= cell_7_4 2)))
 (let (($x1730 (= cell_7_4 1)))
 (or $x1730 $x277 $x2009 $x1633 $x332 $x1963 $x775 $x968 $x842)))))))))))
(assert
 (let (($x1169 (= cell_8_4 9)))
 (let (($x887 (= cell_8_4 8)))
 (let (($x1466 (= cell_8_4 7)))
 (let (($x553 (= cell_8_4 6)))
 (let (($x1931 (= cell_8_4 5)))
 (let (($x1407 (= cell_8_4 4)))
 (let (($x1152 (= cell_8_4 3)))
 (let (($x576 (= cell_8_4 2)))
 (let (($x1390 (= cell_8_4 1)))
 (or $x1390 $x576 $x1152 $x1407 $x1931 $x553 $x1466 $x887 $x1169)))))))))))
(assert
 (let (($x1275 (= cell_9_4 9)))
 (let (($x1805 (= cell_9_4 8)))
 (let (($x1323 (= cell_9_4 7)))
 (let (($x1574 (= cell_9_4 6)))
 (let (($x21 (= cell_9_4 5)))
 (let (($x15 (= cell_9_4 4)))
 (let (($x542 (= cell_9_4 3)))
 (let (($x934 (= cell_9_4 2)))
 (let (($x804 (= cell_9_4 1)))
 (or $x804 $x934 $x542 $x15 $x21 $x1574 $x1323 $x1805 $x1275)))))))))))
(assert
 (let (($x385 (= cell_1_5 9)))
 (let (($x1142 (= cell_1_5 8)))
 (let (($x1514 (= cell_1_5 7)))
 (let (($x443 (= cell_1_5 6)))
 (let (($x1076 (= cell_1_5 5)))
 (let (($x587 (= cell_1_5 4)))
 (let (($x563 (= cell_1_5 3)))
 (let (($x871 (= cell_1_5 2)))
 (let (($x1872 (= cell_1_5 1)))
 (or $x1872 $x871 $x563 $x587 $x1076 $x443 $x1514 $x1142 $x385)))))))))))
(assert
 (let (($x1392 (= cell_2_5 9)))
 (let (($x303 (= cell_2_5 8)))
 (let (($x1725 (= cell_2_5 7)))
 (let (($x1896 (= cell_2_5 6)))
 (let (($x463 (= cell_2_5 5)))
 (let (($x1804 (= cell_2_5 4)))
 (let (($x1969 (= cell_2_5 3)))
 (let (($x750 (= cell_2_5 2)))
 (let (($x621 (= cell_2_5 1)))
 (or $x621 $x750 $x1969 $x1804 $x463 $x1896 $x1725 $x303 $x1392)))))))))))
(assert
 (let (($x795 (= cell_3_5 9)))
 (let (($x2033 (= cell_3_5 8)))
 (let (($x1350 (= cell_3_5 7)))
 (let (($x940 (= cell_3_5 6)))
 (let (($x1450 (= cell_3_5 5)))
 (let (($x1136 (= cell_3_5 4)))
 (let (($x987 (= cell_3_5 3)))
 (let (($x965 (= cell_3_5 2)))
 (let (($x1109 (= cell_3_5 1)))
 (or $x1109 $x965 $x987 $x1136 $x1450 $x940 $x1350 $x2033 $x795)))))))))))
(assert
 (let (($x382 (= cell_4_5 9)))
 (let (($x2013 (= cell_4_5 8)))
 (let (($x1904 (= cell_4_5 7)))
 (let (($x1317 (= cell_4_5 6)))
 (let (($x410 (= cell_4_5 5)))
 (let (($x1021 (= cell_4_5 4)))
 (let (($x1742 (= cell_4_5 3)))
 (let (($x1528 (= cell_4_5 2)))
 (let (($x1953 (= cell_4_5 1)))
 (or $x1953 $x1528 $x1742 $x1021 $x410 $x1317 $x1904 $x2013 $x382)))))))))))
(assert
 (let (($x539 (= cell_5_5 9)))
 (let (($x1236 (= cell_5_5 8)))
 (let (($x910 (= cell_5_5 7)))
 (let (($x1312 (= cell_5_5 6)))
 (let (($x1349 (= cell_5_5 5)))
 (let (($x1652 (= cell_5_5 4)))
 (let (($x1170 (= cell_5_5 3)))
 (let (($x643 (= cell_5_5 2)))
 (let (($x797 (= cell_5_5 1)))
 (or $x797 $x643 $x1170 $x1652 $x1349 $x1312 $x910 $x1236 $x539)))))))))))
(assert
 (let (($x791 (= cell_6_5 9)))
 (let (($x886 (= cell_6_5 8)))
 (let (($x1837 (= cell_6_5 7)))
 (let (($x1285 (= cell_6_5 6)))
 (let (($x1241 (= cell_6_5 5)))
 (let (($x1239 (= cell_6_5 4)))
 (let (($x1506 (= cell_6_5 3)))
 (let (($x167 (= cell_6_5 2)))
 (let (($x1447 (= cell_6_5 1)))
 (or $x1447 $x167 $x1506 $x1239 $x1241 $x1285 $x1837 $x886 $x791)))))))))))
(assert
 (let (($x66 (= cell_7_5 9)))
 (let (($x451 (= cell_7_5 8)))
 (let (($x1127 (= cell_7_5 7)))
 (let (($x1425 (= cell_7_5 6)))
 (let (($x60 (= cell_7_5 5)))
 (let (($x978 (= cell_7_5 4)))
 (let (($x1287 (= cell_7_5 3)))
 (let (($x877 (= cell_7_5 2)))
 (let (($x1674 (= cell_7_5 1)))
 (or $x1674 $x877 $x1287 $x978 $x60 $x1425 $x1127 $x451 $x66)))))))))))
(assert
 (let (($x1090 (= cell_8_5 9)))
 (let (($x948 (= cell_8_5 8)))
 (let (($x1404 (= cell_8_5 7)))
 (let (($x971 (= cell_8_5 6)))
 (let (($x1713 (= cell_8_5 5)))
 (let (($x72 (= cell_8_5 4)))
 (let (($x67 (= cell_8_5 3)))
 (let (($x1186 (= cell_8_5 2)))
 (let (($x299 (= cell_8_5 1)))
 (or $x299 $x1186 $x67 $x72 $x1713 $x971 $x1404 $x948 $x1090)))))))))))
(assert
 (let (($x493 (= cell_9_5 9)))
 (let (($x1384 (= cell_9_5 8)))
 (let (($x376 (= cell_9_5 7)))
 (let (($x1455 (= cell_9_5 6)))
 (let (($x1960 (= cell_9_5 5)))
 (let (($x1082 (= cell_9_5 4)))
 (let (($x2072 (= cell_9_5 3)))
 (let (($x1705 (= cell_9_5 2)))
 (let (($x384 (= cell_9_5 1)))
 (or $x384 $x1705 $x2072 $x1082 $x1960 $x1455 $x376 $x1384 $x493)))))))))))
(assert
 (let (($x399 (= cell_1_6 9)))
 (let (($x1502 (= cell_1_6 8)))
 (let (($x1959 (= cell_1_6 7)))
 (let (($x1583 (= cell_1_6 6)))
 (let (($x1340 (= cell_1_6 5)))
 (let (($x1809 (= cell_1_6 4)))
 (let (($x342 (= cell_1_6 3)))
 (let (($x26 (= cell_1_6 2)))
 (let (($x858 (= cell_1_6 1)))
 (or $x858 $x26 $x342 $x1809 $x1340 $x1583 $x1959 $x1502 $x399)))))))))))
(assert
 (let (($x1465 (= cell_2_6 9)))
 (let (($x1477 (= cell_2_6 8)))
 (let (($x1128 (= cell_2_6 7)))
 (let (($x953 (= cell_2_6 6)))
 (let (($x1167 (= cell_2_6 5)))
 (let (($x1066 (= cell_2_6 4)))
 (let (($x2120 (= cell_2_6 3)))
 (let (($x1228 (= cell_2_6 2)))
 (let (($x838 (= cell_2_6 1)))
 (or $x838 $x1228 $x2120 $x1066 $x1167 $x953 $x1128 $x1477 $x1465)))))))))))
(assert
 (let (($x454 (= cell_3_6 9)))
 (let (($x1240 (= cell_3_6 8)))
 (let (($x1002 (= cell_3_6 7)))
 (let (($x1150 (= cell_3_6 6)))
 (let (($x885 (= cell_3_6 5)))
 (let (($x1078 (= cell_3_6 4)))
 (let (($x159 (= cell_3_6 3)))
 (let (($x1214 (= cell_3_6 2)))
 (let (($x925 (= cell_3_6 1)))
 (or $x925 $x1214 $x159 $x1078 $x885 $x1150 $x1002 $x1240 $x454)))))))))))
(assert
 (let (($x1377 (= cell_4_6 9)))
 (let (($x970 (= cell_4_6 8)))
 (let (($x1537 (= cell_4_6 7)))
 (let (($x1230 (= cell_4_6 6)))
 (let (($x1772 (= cell_4_6 5)))
 (let (($x635 (= cell_4_6 4)))
 (let (($x1329 (= cell_4_6 3)))
 (let (($x1353 (= cell_4_6 2)))
 (let (($x732 (= cell_4_6 1)))
 (or $x732 $x1353 $x1329 $x635 $x1772 $x1230 $x1537 $x970 $x1377)))))))))))
(assert
 (let (($x358 (= cell_5_6 9)))
 (let (($x319 (= cell_5_6 8)))
 (let (($x447 (= cell_5_6 7)))
 (let (($x1812 (= cell_5_6 6)))
 (let (($x915 (= cell_5_6 5)))
 (let (($x1875 (= cell_5_6 4)))
 (let (($x1604 (= cell_5_6 3)))
 (let (($x1413 (= cell_5_6 2)))
 (let (($x1518 (= cell_5_6 1)))
 (or $x1518 $x1413 $x1604 $x1875 $x915 $x1812 $x447 $x319 $x358)))))))))))
(assert
 (let (($x1523 (= cell_6_6 9)))
 (let (($x1290 (= cell_6_6 8)))
 (let (($x1728 (= cell_6_6 7)))
 (let (($x1599 (= cell_6_6 6)))
 (let (($x1779 (= cell_6_6 5)))
 (let (($x644 (= cell_6_6 4)))
 (let (($x631 (= cell_6_6 3)))
 (let (($x1237 (= cell_6_6 2)))
 (let (($x1154 (= cell_6_6 1)))
 (or $x1154 $x1237 $x631 $x644 $x1779 $x1599 $x1728 $x1290 $x1523)))))))))))
(assert
 (let (($x1790 (= cell_7_6 9)))
 (let (($x393 (= cell_7_6 8)))
 (let (($x895 (= cell_7_6 7)))
 (let (($x380 (= cell_7_6 6)))
 (let (($x1920 (= cell_7_6 5)))
 (let (($x1079 (= cell_7_6 4)))
 (let (($x1684 (= cell_7_6 3)))
 (let (($x1636 (= cell_7_6 2)))
 (let (($x2087 (= cell_7_6 1)))
 (or $x2087 $x1636 $x1684 $x1079 $x1920 $x380 $x895 $x393 $x1790)))))))))))
(assert
 (let (($x1754 (= cell_8_6 9)))
 (let (($x478 (= cell_8_6 8)))
 (let (($x656 (= cell_8_6 7)))
 (let (($x304 (= cell_8_6 6)))
 (let (($x1903 (= cell_8_6 5)))
 (let (($x1625 (= cell_8_6 4)))
 (let (($x1582 (= cell_8_6 3)))
 (let (($x581 (= cell_8_6 2)))
 (let (($x1071 (= cell_8_6 1)))
 (or $x1071 $x581 $x1582 $x1625 $x1903 $x304 $x656 $x478 $x1754)))))))))))
(assert
 (let (($x388 (= cell_9_6 9)))
 (let (($x588 (= cell_9_6 8)))
 (let (($x681 (= cell_9_6 7)))
 (let (($x1637 (= cell_9_6 6)))
 (let (($x977 (= cell_9_6 5)))
 (let (($x1510 (= cell_9_6 4)))
 (let (($x1281 (= cell_9_6 3)))
 (let (($x1411 (= cell_9_6 2)))
 (let (($x800 (= cell_9_6 1)))
 (or $x800 $x1411 $x1281 $x1510 $x977 $x1637 $x681 $x588 $x388)))))))))))
(assert
 (let (($x704 (= cell_1_7 9)))
 (let (($x1840 (= cell_1_7 8)))
 (let (($x1471 (= cell_1_7 7)))
 (let (($x1541 (= cell_1_7 6)))
 (let (($x1419 (= cell_1_7 5)))
 (let (($x878 (= cell_1_7 4)))
 (let (($x1893 (= cell_1_7 3)))
 (let (($x231 (= cell_1_7 2)))
 (let (($x1297 (= cell_1_7 1)))
 (or $x1297 $x231 $x1893 $x878 $x1419 $x1541 $x1471 $x1840 $x704)))))))))))
(assert
 (let (($x1175 (= cell_2_7 9)))
 (let (($x699 (= cell_2_7 8)))
 (let (($x1882 (= cell_2_7 7)))
 (let (($x1062 (= cell_2_7 6)))
 (let (($x43 (= cell_2_7 5)))
 (let (($x855 (= cell_2_7 4)))
 (let (($x985 (= cell_2_7 3)))
 (let (($x405 (= cell_2_7 2)))
 (let (($x1016 (= cell_2_7 1)))
 (or $x1016 $x405 $x985 $x855 $x43 $x1062 $x1882 $x699 $x1175)))))))))))
(assert
 (let (($x1397 (= cell_3_7 9)))
 (let (($x604 (= cell_3_7 8)))
 (let (($x1849 (= cell_3_7 7)))
 (let (($x747 (= cell_3_7 6)))
 (let (($x452 (= cell_3_7 5)))
 (let (($x1326 (= cell_3_7 4)))
 (let (($x1295 (= cell_3_7 3)))
 (let (($x1825 (= cell_3_7 2)))
 (let (($x17 (= cell_3_7 1)))
 (or $x17 $x1825 $x1295 $x1326 $x452 $x747 $x1849 $x604 $x1397)))))))))))
(assert
 (let (($x383 (= cell_4_7 9)))
 (let (($x1428 (= cell_4_7 8)))
 (let (($x5 (= cell_4_7 7)))
 (let (($x1008 (= cell_4_7 6)))
 (let (($x1380 (= cell_4_7 5)))
 (let (($x2005 (= cell_4_7 4)))
 (let (($x76 (= cell_4_7 3)))
 (let (($x1056 (= cell_4_7 2)))
 (let (($x1070 (= cell_4_7 1)))
 (or $x1070 $x1056 $x76 $x2005 $x1380 $x1008 $x5 $x1428 $x383)))))))))))
(assert
 (let (($x1336 (= cell_5_7 9)))
 (let (($x1990 (= cell_5_7 8)))
 (let (($x1097 (= cell_5_7 7)))
 (let (($x343 (= cell_5_7 6)))
 (let (($x667 (= cell_5_7 5)))
 (let (($x749 (= cell_5_7 4)))
 (let (($x150 (= cell_5_7 3)))
 (let (($x1938 (= cell_5_7 2)))
 (let (($x172 (= cell_5_7 1)))
 (or $x172 $x1938 $x150 $x749 $x667 $x343 $x1097 $x1990 $x1336)))))))))))
(assert
 (let (($x83 (= cell_6_7 9)))
 (let (($x823 (= cell_6_7 8)))
 (let (($x1000 (= cell_6_7 7)))
 (let (($x246 (= cell_6_7 6)))
 (let (($x1555 (= cell_6_7 5)))
 (let (($x37 (= cell_6_7 4)))
 (let (($x962 (= cell_6_7 3)))
 (let (($x1274 (= cell_6_7 2)))
 (let (($x331 (= cell_6_7 1)))
 (or $x331 $x1274 $x962 $x37 $x1555 $x246 $x1000 $x823 $x83)))))))))))
(assert
 (let (($x1370 (= cell_7_7 9)))
 (let (($x1130 (= cell_7_7 8)))
 (let (($x1138 (= cell_7_7 7)))
 (let (($x568 (= cell_7_7 6)))
 (let (($x63 (= cell_7_7 5)))
 (let (($x1248 (= cell_7_7 4)))
 (let (($x718 (= cell_7_7 3)))
 (let (($x1061 (= cell_7_7 2)))
 (let (($x1099 (= cell_7_7 1)))
 (or $x1099 $x1061 $x718 $x1248 $x63 $x568 $x1138 $x1130 $x1370)))))))))))
(assert
 (let (($x1352 (= cell_8_7 9)))
 (let (($x1258 (= cell_8_7 8)))
 (let (($x409 (= cell_8_7 7)))
 (let (($x1655 (= cell_8_7 6)))
 (let (($x1850 (= cell_8_7 5)))
 (let (($x935 (= cell_8_7 4)))
 (let (($x1505 (= cell_8_7 3)))
 (let (($x261 (= cell_8_7 2)))
 (let (($x936 (= cell_8_7 1)))
 (or $x936 $x261 $x1505 $x935 $x1850 $x1655 $x409 $x1258 $x1352)))))))))))
(assert
 (let (($x97 (= cell_9_7 9)))
 (let (($x59 (= cell_9_7 8)))
 (let (($x1597 (= cell_9_7 7)))
 (let (($x771 (= cell_9_7 6)))
 (let (($x571 (= cell_9_7 5)))
 (let (($x39 (= cell_9_7 4)))
 (let (($x188 (= cell_9_7 3)))
 (let (($x652 (= cell_9_7 2)))
 (let (($x1569 (= cell_9_7 1)))
 (or $x1569 $x652 $x188 $x39 $x571 $x771 $x1597 $x59 $x97)))))))))))
(assert
 (let (($x812 (= cell_1_8 9)))
 (let (($x1759 (= cell_1_8 8)))
 (let (($x665 (= cell_1_8 7)))
 (let (($x355 (= cell_1_8 6)))
 (let (($x2081 (= cell_1_8 5)))
 (let (($x486 (= cell_1_8 4)))
 (let (($x614 (= cell_1_8 3)))
 (let (($x1278 (= cell_1_8 2)))
 (let (($x1695 (= cell_1_8 1)))
 (or $x1695 $x1278 $x614 $x486 $x2081 $x355 $x665 $x1759 $x812)))))))))))
(assert
 (let (($x315 (= cell_2_8 9)))
 (let (($x1686 (= cell_2_8 8)))
 (let (($x1243 (= cell_2_8 7)))
 (let (($x769 (= cell_2_8 6)))
 (let (($x11 (= cell_2_8 5)))
 (let (($x647 (= cell_2_8 4)))
 (let (($x686 (= cell_2_8 3)))
 (let (($x58 (= cell_2_8 2)))
 (let (($x508 (= cell_2_8 1)))
 (or $x508 $x58 $x686 $x647 $x11 $x769 $x1243 $x1686 $x315)))))))))))
(assert
 (let (($x729 (= cell_3_8 9)))
 (let (($x2061 (= cell_3_8 8)))
 (let (($x1282 (= cell_3_8 7)))
 (let (($x1933 (= cell_3_8 6)))
 (let (($x101 (= cell_3_8 5)))
 (let (($x403 (= cell_3_8 4)))
 (let (($x391 (= cell_3_8 3)))
 (let (($x1304 (= cell_3_8 2)))
 (let (($x1183 (= cell_3_8 1)))
 (or $x1183 $x1304 $x391 $x403 $x101 $x1933 $x1282 $x2061 $x729)))))))))))
(assert
 (let (($x1092 (= cell_4_8 9)))
 (let (($x1264 (= cell_4_8 8)))
 (let (($x1234 (= cell_4_8 7)))
 (let (($x1006 (= cell_4_8 6)))
 (let (($x1821 (= cell_4_8 5)))
 (let (($x70 (= cell_4_8 4)))
 (let (($x1543 (= cell_4_8 3)))
 (let (($x633 (= cell_4_8 2)))
 (let (($x1481 (= cell_4_8 1)))
 (or $x1481 $x633 $x1543 $x70 $x1821 $x1006 $x1234 $x1264 $x1092)))))))))))
(assert
 (let (($x219 (= cell_5_8 9)))
 (let (($x554 (= cell_5_8 8)))
 (let (($x660 (= cell_5_8 7)))
 (let (($x1199 (= cell_5_8 6)))
 (let (($x228 (= cell_5_8 5)))
 (let (($x1298 (= cell_5_8 4)))
 (let (($x1942 (= cell_5_8 3)))
 (let (($x1721 (= cell_5_8 2)))
 (let (($x1093 (= cell_5_8 1)))
 (or $x1093 $x1721 $x1942 $x1298 $x228 $x1199 $x660 $x554 $x219)))))))))))
(assert
 (let (($x1970 (= cell_6_8 9)))
 (let (($x392 (= cell_6_8 8)))
 (let (($x1311 (= cell_6_8 7)))
 (let (($x1698 (= cell_6_8 6)))
 (let (($x179 (= cell_6_8 5)))
 (let (($x1690 (= cell_6_8 4)))
 (let (($x368 (= cell_6_8 3)))
 (let (($x532 (= cell_6_8 2)))
 (let (($x129 (= cell_6_8 1)))
 (or $x129 $x532 $x368 $x1690 $x179 $x1698 $x1311 $x392 $x1970)))))))))))
(assert
 (let (($x540 (= cell_7_8 9)))
 (let (($x1635 (= cell_7_8 8)))
 (let (($x1832 (= cell_7_8 7)))
 (let (($x501 (= cell_7_8 6)))
 (let (($x1975 (= cell_7_8 5)))
 (let (($x345 (= cell_7_8 4)))
 (let (($x1608 (= cell_7_8 3)))
 (let (($x449 (= cell_7_8 2)))
 (let (($x1077 (= cell_7_8 1)))
 (or $x1077 $x449 $x1608 $x345 $x1975 $x501 $x1832 $x1635 $x540)))))))))))
(assert
 (let (($x538 (= cell_8_8 9)))
 (let (($x232 (= cell_8_8 8)))
 (let (($x25 (= cell_8_8 7)))
 (let (($x81 (= cell_8_8 6)))
 (let (($x1503 (= cell_8_8 5)))
 (let (($x899 (= cell_8_8 4)))
 (let (($x1757 (= cell_8_8 3)))
 (let (($x31 (= cell_8_8 2)))
 (let (($x1260 (= cell_8_8 1)))
 (or $x1260 $x31 $x1757 $x899 $x1503 $x81 $x25 $x232 $x538)))))))))))
(assert
 (let (($x1806 (= cell_9_8 9)))
 (let (($x462 (= cell_9_8 8)))
 (let (($x512 (= cell_9_8 7)))
 (let (($x1227 (= cell_9_8 6)))
 (let (($x552 (= cell_9_8 5)))
 (let (($x236 (= cell_9_8 4)))
 (let (($x2001 (= cell_9_8 3)))
 (let (($x1244 (= cell_9_8 2)))
 (let (($x1937 (= cell_9_8 1)))
 (or $x1937 $x1244 $x2001 $x236 $x552 $x1227 $x512 $x462 $x1806)))))))))))
(assert
 (let (($x245 (= cell_1_9 9)))
 (let (($x202 (= cell_1_9 8)))
 (let (($x474 (= cell_1_9 7)))
 (let (($x1577 (= cell_1_9 6)))
 (let (($x173 (= cell_1_9 5)))
 (let (($x579 (= cell_1_9 4)))
 (let (($x1578 (= cell_1_9 3)))
 (let (($x1623 (= cell_1_9 2)))
 (let (($x199 (= cell_1_9 1)))
 (or $x199 $x1623 $x1578 $x579 $x173 $x1577 $x474 $x202 $x245)))))))))))
(assert
 (let (($x1641 (= cell_2_9 9)))
 (let (($x514 (= cell_2_9 8)))
 (let (($x1595 (= cell_2_9 7)))
 (let (($x1313 (= cell_2_9 6)))
 (let (($x964 (= cell_2_9 5)))
 (let (($x1396 (= cell_2_9 4)))
 (let (($x1567 (= cell_2_9 3)))
 (let (($x911 (= cell_2_9 2)))
 (let (($x1221 (= cell_2_9 1)))
 (or $x1221 $x911 $x1567 $x1396 $x964 $x1313 $x1595 $x514 $x1641)))))))))))
(assert
 (let (($x1576 (= cell_3_9 9)))
 (let (($x279 (= cell_3_9 8)))
 (let (($x909 (= cell_3_9 7)))
 (let (($x406 (= cell_3_9 6)))
 (let (($x466 (= cell_3_9 5)))
 (let (($x1702 (= cell_3_9 4)))
 (let (($x1474 (= cell_3_9 3)))
 (let (($x1437 (= cell_3_9 2)))
 (let (($x756 (= cell_3_9 1)))
 (or $x756 $x1437 $x1474 $x1702 $x466 $x406 $x909 $x279 $x1576)))))))))))
(assert
 (let (($x1213 (= cell_4_9 9)))
 (let (($x1533 (= cell_4_9 8)))
 (let (($x609 (= cell_4_9 7)))
 (let (($x169 (= cell_4_9 6)))
 (let (($x1817 (= cell_4_9 5)))
 (let (($x1692 (= cell_4_9 4)))
 (let (($x1565 (= cell_4_9 3)))
 (let (($x1339 (= cell_4_9 2)))
 (let (($x1322 (= cell_4_9 1)))
 (or $x1322 $x1339 $x1565 $x1692 $x1817 $x169 $x609 $x1533 $x1213)))))))))))
(assert
 (let (($x1877 (= cell_5_9 9)))
 (let (($x707 (= cell_5_9 8)))
 (let (($x207 (= cell_5_9 7)))
 (let (($x1284 (= cell_5_9 6)))
 (let (($x1978 (= cell_5_9 5)))
 (let (($x1761 (= cell_5_9 4)))
 (let (($x1018 (= cell_5_9 3)))
 (let (($x1131 (= cell_5_9 2)))
 (let (($x1784 (= cell_5_9 1)))
 (or $x1784 $x1131 $x1018 $x1761 $x1978 $x1284 $x207 $x707 $x1877)))))))))))
(assert
 (let (($x1457 (= cell_6_9 9)))
 (let (($x880 (= cell_6_9 8)))
 (let (($x1617 (= cell_6_9 7)))
 (let (($x241 (= cell_6_9 6)))
 (let (($x1351 (= cell_6_9 5)))
 (let (($x1628 (= cell_6_9 4)))
 (let (($x1458 (= cell_6_9 3)))
 (let (($x138 (= cell_6_9 2)))
 (let (($x779 (= cell_6_9 1)))
 (or $x779 $x138 $x1458 $x1628 $x1351 $x241 $x1617 $x880 $x1457)))))))))))
(assert
 (let (($x564 (= cell_7_9 9)))
 (let (($x1365 (= cell_7_9 8)))
 (let (($x1803 (= cell_7_9 7)))
 (let (($x738 (= cell_7_9 6)))
 (let (($x1201 (= cell_7_9 5)))
 (let (($x1094 (= cell_7_9 4)))
 (let (($x1991 (= cell_7_9 3)))
 (let (($x1869 (= cell_7_9 2)))
 (let (($x1366 (= cell_7_9 1)))
 (or $x1366 $x1869 $x1991 $x1094 $x1201 $x738 $x1803 $x1365 $x564)))))))))))
(assert
 (let (($x1860 (= cell_8_9 9)))
 (let (($x1399 (= cell_8_9 8)))
 (let (($x551 (= cell_8_9 7)))
 (let (($x2042 (= cell_8_9 6)))
 (let (($x413 (= cell_8_9 5)))
 (let (($x1302 (= cell_8_9 4)))
 (let (($x1344 (= cell_8_9 3)))
 (let (($x109 (= cell_8_9 2)))
 (let (($x535 (= cell_8_9 1)))
 (or $x535 $x109 $x1344 $x1302 $x413 $x2042 $x551 $x1399 $x1860)))))))))))
(assert
 (let (($x632 (= cell_9_9 9)))
 (let (($x520 (= cell_9_9 8)))
 (let (($x95 (= cell_9_9 7)))
 (let (($x1827 (= cell_9_9 6)))
 (let (($x1220 (= cell_9_9 5)))
 (let (($x1198 (= cell_9_9 4)))
 (let (($x602 (= cell_9_9 3)))
 (let (($x2116 (= cell_9_9 2)))
 (let (($x1853 (= cell_9_9 1)))
 (or $x1853 $x2116 $x602 $x1198 $x1220 $x1827 $x95 $x520 $x632)))))))))))
(assert
 (and (distinct cell_1_1 cell_1_2 cell_1_3 cell_1_4 cell_1_5 cell_1_6 cell_1_7 cell_1_8 cell_1_9) true))
(assert
 (and (distinct cell_2_1 cell_2_2 cell_2_3 cell_2_4 cell_2_5 cell_2_6 cell_2_7 cell_2_8 cell_2_9) true))
(assert
 (and (distinct cell_3_1 cell_3_2 cell_3_3 cell_3_4 cell_3_5 cell_3_6 cell_3_7 cell_3_8 cell_3_9) true))
(assert
 (and (distinct cell_4_1 cell_4_2 cell_4_3 cell_4_4 cell_4_5 cell_4_6 cell_4_7 cell_4_8 cell_4_9) true))
(assert
 (and (distinct cell_5_1 cell_5_2 cell_5_3 cell_5_4 cell_5_5 cell_5_6 cell_5_7 cell_5_8 cell_5_9) true))
(assert
 (and (distinct cell_6_1 cell_6_2 cell_6_3 cell_6_4 cell_6_5 cell_6_6 cell_6_7 cell_6_8 cell_6_9) true))
(assert
 (and (distinct cell_7_1 cell_7_2 cell_7_3 cell_7_4 cell_7_5 cell_7_6 cell_7_7 cell_7_8 cell_7_9) true))
(assert
 (and (distinct cell_8_1 cell_8_2 cell_8_3 cell_8_4 cell_8_5 cell_8_6 cell_8_7 cell_8_8 cell_8_9) true))
(assert
 (and (distinct cell_9_1 cell_9_2 cell_9_3 cell_9_4 cell_9_5 cell_9_6 cell_9_7 cell_9_8 cell_9_9) true))
(assert
 (and (distinct cell_1_1 cell_2_1 cell_3_1 cell_4_1 cell_5_1 cell_6_1 cell_7_1 cell_8_1 cell_9_1) true))
(assert
 (and (distinct cell_1_2 cell_2_2 cell_3_2 cell_4_2 cell_5_2 cell_6_2 cell_7_2 cell_8_2 cell_9_2) true))
(assert
 (and (distinct cell_1_3 cell_2_3 cell_3_3 cell_4_3 cell_5_3 cell_6_3 cell_7_3 cell_8_3 cell_9_3) true))
(assert
 (and (distinct cell_1_4 cell_2_4 cell_3_4 cell_4_4 cell_5_4 cell_6_4 cell_7_4 cell_8_4 cell_9_4) true))
(assert
 (and (distinct cell_1_5 cell_2_5 cell_3_5 cell_4_5 cell_5_5 cell_6_5 cell_7_5 cell_8_5 cell_9_5) true))
(assert
 (and (distinct cell_1_6 cell_2_6 cell_3_6 cell_4_6 cell_5_6 cell_6_6 cell_7_6 cell_8_6 cell_9_6) true))
(assert
 (and (distinct cell_1_7 cell_2_7 cell_3_7 cell_4_7 cell_5_7 cell_6_7 cell_7_7 cell_8_7 cell_9_7) true))
(assert
 (and (distinct cell_1_8 cell_2_8 cell_3_8 cell_4_8 cell_5_8 cell_6_8 cell_7_8 cell_8_8 cell_9_8) true))
(assert
 (and (distinct cell_1_9 cell_2_9 cell_3_9 cell_4_9 cell_5_9 cell_6_9 cell_7_9 cell_8_9 cell_9_9) true))
(assert
 (and (distinct cell_1_1 cell_1_2 cell_1_3 cell_2_1 cell_2_2 cell_2_3 cell_3_1 cell_3_2 cell_3_3) true))
(assert
 (and (distinct cell_1_4 cell_1_5 cell_1_6 cell_2_4 cell_2_5 cell_2_6 cell_3_4 cell_3_5 cell_3_6) true))
(assert
 (and (distinct cell_1_7 cell_1_8 cell_1_9 cell_2_7 cell_2_8 cell_2_9 cell_3_7 cell_3_8 cell_3_9) true))
(assert
 (and (distinct cell_4_1 cell_4_2 cell_4_3 cell_5_1 cell_5_2 cell_5_3 cell_6_1 cell_6_2 cell_6_3) true))
(assert
 (and (distinct cell_4_4 cell_4_5 cell_4_6 cell_5_4 cell_5_5 cell_5_6 cell_6_4 cell_6_5 cell_6_6) true))
(assert
 (and (distinct cell_4_7 cell_4_8 cell_4_9 cell_5_7 cell_5_8 cell_5_9 cell_6_7 cell_6_8 cell_6_9) true))
(assert
 (and (distinct cell_7_1 cell_7_2 cell_7_3 cell_8_1 cell_8_2 cell_8_3 cell_9_1 cell_9_2 cell_9_3) true))
(assert
 (and (distinct cell_7_4 cell_7_5 cell_7_6 cell_8_4 cell_8_5 cell_8_6 cell_9_4 cell_9_5 cell_9_6) true))
(assert
 (and (distinct cell_7_7 cell_7_8 cell_7_9 cell_8_7 cell_8_8 cell_8_9 cell_9_7 cell_9_8 cell_9_9) true))
(assert
 (let (($x628 (and (distinct cell_5_9 cell_6_8 cell_7_7 cell_8_6) true)))
 (let (($x488 (and (distinct cell_2_9 cell_3_8 cell_4_7 cell_5_6 cell_6_5 cell_7_4 cell_8_3 cell_9_2) true)))
 (let (($x1650 (and (distinct cell_1_8 cell_2_7 cell_3_6 cell_4_5 cell_5_4 cell_6_3 cell_7_2 cell_8_1) true)))
 (let (($x2045 (and (distinct cell_1_5 cell_2_4 cell_3_3 cell_4_2) true)))
 (let (($x1341 (and (distinct cell_5_1 cell_6_2 cell_7_3 cell_8_4) true)))
 (let (($x826 (and (distinct cell_2_1 cell_3_2 cell_4_3 cell_5_4 cell_6_5 cell_7_6 cell_8_7 cell_9_8) true)))
 (let (($x1819 (and (distinct cell_1_2 cell_2_3 cell_3_4 cell_4_5 cell_5_6 cell_6_7 cell_7_8 cell_8_9) true)))
 (let (($x1133 (and (distinct cell_1_5 cell_2_6 cell_3_7 cell_4_8) true)))
 (and $x1133 $x1819 $x826 $x1341 $x2045 $x1650 $x488 $x628))))))))))
(assert
 (= cell_1_4 1))
(assert
 (= cell_2_2 1))
(assert
 (= cell_3_8 1))
(assert
 (= cell_4_5 1))
(assert
 (= cell_5_7 1))
(assert
 (= cell_6_1 1))
(assert
 (= cell_7_3 1))
(assert
 (= cell_8_6 1))
(assert
 (= cell_9_9 1))
(assert
 (= cell_1_6 2))
(assert
 (= cell_2_9 2))
(assert
 (= cell_3_1 2))
(assert
 (= cell_4_8 2))
(assert
 (= cell_5_4 2))
(assert
 (= cell_6_2 2))
(assert
 (= cell_7_7 2))
(assert
 (= cell_8_5 2))
(assert
 (= cell_9_3 2))
(assert
 (= cell_1_7 3))
(assert
 (= cell_2_1 3))
(assert
 (= cell_3_4 3))
(assert
 (= cell_4_6 3))
(check-sat)

